qbf_easy_train/easy_381_SAT.qdimacs
p cnf 22 55
a 8 21 0
e 1 2 3 4 5 6 7 9 10 11 12 13 14 15 16 17 18 19 20 22 0
3 1 0
3 2 0
-1 -2 -3 0
4 1 -5 0
-4 -1 -5 0
4 -1 5 0
-4 1 5 0
-6 7 -8 0
6 -7 -8 0
-6 -7 8 0
6 7 8 0
-9 5 0
-9 8 0
-5 -8 9 0
3 9 -10 0
-3 -9 -10 0
3 -9 10 0
-3 9 10 0
-2 -11 -12 0
2 11 -12 0
-2 11 12 0
2 -11 12 0
-12 1 -13 0
12 -1 -13 0
-12 -1 13 0
12 1 13 0
-14 -13 0
-14 1 0
13 -1 14 0
16 15 0
16 -7 0
-15 7 -16 0
-14 16 -17 0
14 -16 -17 0
-14 -16 17 0
14 16 17 0
-18 12 0
-18 11 0
-12 -11 18 0
20 18 0
20 -19 0
-18 19 -20 0
17 -20 -21 0
-17 20 -21 0
17 20 21 0
-17 -20 21 0
22 -10 0
22 -21 0
10 21 -22 0
-2 8 20 17 7 -10 0
4 -10 -15 14 -11 12 0
9 -10 -21 11 0
10 -20 -12 0
1 -20 -2 0
22 0
