sat_easy_train/easy_381_SAT.dimacs
p cnf 94 301
1 2 -3 0
-1 -2 -3 0
1 -2 3 0
-1 2 3 0
-5 3 0
-5 4 0
-3 -4 5 0
-6 7 -8 0
6 -7 -8 0
-6 -7 8 0
6 7 8 0
8 9 -10 0
-8 -9 -10 0
8 -9 10 0
-8 9 10 0
11 1 -12 0
-11 -1 -12 0
11 -1 12 0
-11 1 12 0
-14 13 0
-14 3 0
-13 -3 14 0
-15 -12 0
-15 -14 0
12 14 15 0
10 15 -16 0
-10 -15 -16 0
10 -15 16 0
-10 15 16 0
-17 -5 0
-17 -16 0
5 16 17 0
-18 13 0
-18 4 0
-13 -4 18 0
21 -19 0
21 20 0
19 -20 -21 0
-24 -22 0
-24 -23 0
22 23 24 0
25 15 0
25 -24 0
-15 24 -25 0
26 -21 0
26 25 0
21 -25 -26 0
18 26 -27 0
-18 -26 -27 0
18 -26 27 0
-18 26 27 0
-28 -4 -29 0
28 4 -29 0
-28 4 29 0
28 -4 29 0
-30 11 0
-30 24 0
-11 -24 30 0
-32 31 0
-32 13 0
-31 -13 32 0
33 30 0
33 32 0
-30 -32 -33 0
-29 -33 -34 0
29 33 -34 0
-29 33 34 0
29 -33 34 0
20 31 -35 0
-20 -31 -35 0
20 -31 35 0
-20 31 35 0
-36 -20 0
-36 13 0
20 -13 36 0
37 -7 0
37 -36 0
7 36 -37 0
38 -35 0
38 -37 0
35 37 -38 0
-39 -34 0
-39 -38 0
34 38 39 0
40 -22 0
40 -7 0
22 7 -40 0
-41 1 0
-41 40 0
-1 -40 41 0
-41 -24 -42 0
41 24 -42 0
-41 24 42 0
41 -24 42 0
43 -6 0
43 -4 0
6 4 -43 0
-28 43 -44 0
28 -43 -44 0
-28 -43 44 0
28 43 44 0
45 -42 0
45 -44 0
42 44 -45 0
-46 -4 0
-46 22 0
4 -22 46 0
-23 -46 -47 0
23 46 -47 0
-23 46 47 0
23 -46 47 0
47 -24 -48 0
-47 24 -48 0
47 24 48 0
-47 -24 48 0
-49 -8 0
-49 48 0
8 -48 49 0
-45 49 -50 0
45 -49 -50 0
-45 -49 50 0
45 49 50 0
6 12 -51 0
-6 -12 -51 0
6 -12 51 0
-6 12 51 0
-2 12 -52 0
2 -12 -52 0
-2 -12 52 0
2 12 52 0
-53 28 0
-53 24 0
-28 -24 53 0
-54 -52 0
-54 53 0
52 -53 54 0
-54 -55 -56 0
54 55 -56 0
-54 55 56 0
54 -55 56 0
57 -51 0
57 56 0
51 -56 -57 0
-31 55 -58 0
31 -55 -58 0
-31 -55 58 0
31 55 58 0
59 11 0
59 -11 0
60 -59 0
60 53 0
59 -53 -60 0
-61 -58 0
-61 60 0
58 -60 61 0
57 -61 -62 0
-57 61 -62 0
57 61 62 0
-57 -61 62 0
-50 62 -63 0
50 -62 -63 0
-50 -62 63 0
50 62 63 0
64 -39 0
64 -63 0
39 63 -64 0
-65 59 0
-65 -42 0
-59 42 65 0
64 -65 -66 0
-64 65 -66 0
64 65 66 0
-64 -65 66 0
67 -27 0
67 66 0
27 -66 -67 0
-68 -28 0
-68 13 0
28 -13 68 0
69 -68 0
69 2 0
68 -2 -69 0
-70 -10 0
-70 69 0
10 -69 70 0
-71 28 0
-71 70 0
-28 -70 71 0
72 -42 0
72 52 0
42 -52 -72 0
73 71 0
73 72 0
-71 -72 -73 0
-67 73 -74 0
67 -73 -74 0
-67 -73 74 0
67 73 74 0
75 -17 0
75 74 0
17 -74 -75 0
-76 7 0
-76 -23 0
-7 23 76 0
-77 2 0
-77 76 0
-2 -76 77 0
78 -29 0
78 -55 0
29 55 -78 0
79 -77 0
79 -78 0
77 78 -79 0
43 59 -80 0
-43 -59 -80 0
43 -59 80 0
-43 59 80 0
-81 15 0
-81 -30 0
-15 30 81 0
-82 81 0
-82 44 0
-81 -44 82 0
83 80 0
83 -82 0
-80 82 -83 0
-85 84 0
-85 43 0
-84 -43 85 0
86 -1 0
86 55 0
1 -55 -86 0
87 85 0
87 86 0
-85 -86 -87 0
19 7 -88 0
-19 -7 -88 0
19 -7 88 0
-19 7 88 0
54 -88 -89 0
-54 88 -89 0
54 88 89 0
-54 -88 89 0
89 -46 -90 0
-89 46 -90 0
89 46 90 0
-89 -46 90 0
91 87 0
91 90 0
-87 -90 -91 0
-92 -83 0
-92 91 0
83 -91 92 0
-79 -92 -93 0
79 92 -93 0
-79 92 93 0
79 -92 93 0
75 93 -94 0
-75 -93 -94 0
75 -93 94 0
-75 93 94 0
-66 81 -43 -22 -35 0
78 -12 -69 -47 24 -44 0
-56 41 0
83 93 -56 22 -65 63 0
2 9 69 0
-39 4 -35 16 -92 -22 0
-27 -90 21 0
-61 -43 0
62 -67 -3 81 0
17 -46 42 0
3 -44 -5 24 -59 53 0
-80 -16 -41 -49 -12 17 0
-62 -78 0
-19 36 0
-87 24 -72 -27 0
-12 28 -43 -57 -25 0
3 -9 0
-21 92 6 20 0
48 61 82 3 -73 63 0
-61 -14 -35 -44 -25 0
66 -5 -42 0
-36 51 67 0
-52 -88 5 0
-75 4 -6 89 -42 -37 0
6 47 83 0
86 77 0
80 17 53 0
62 63 0
-75 -60 -37 -71 0
51 -66 0
-60 -77 0
-90 46 73 60 0
-21 69 76 10 8 0
72 -83 0
-63 81 40 85 77 11 0
84 64 13 -43 93 0
-82 48 0
46 5 -3 85 82 35 0
-66 36 0
94 0
